data/mip_solutions/furman_sahinidis/reduced_transportation/6sp-cf1_cplex.sol
Elapsed time: 0.0211770534515
Nodes explored: 3
Upper bound: 6.0
Lower bound: 6.0
y[0,0]=1
y[1,0]=1
y[1,1]=1
y[1,2]=1
y[2,2]=1
y[2,3]=1
q[0,1,0,1]=360.0
q[0,1,0,2]=140.0
q[0,2,0,2]=310.0
q[0,2,0,4]=190.0
q[0,3,0,3]=450.0
q[0,3,0,4]=50.0
q[1,2,0,4]=20.0
q[1,2,1,2]=300.0
q[1,2,2,2]=80.0
q[1,2,2,3]=200.0
q[1,3,0,4]=100.0
q[1,3,1,3]=500.0
q[2,3,2,3]=200.0
q[2,3,3,4]=200.0
q[2,4,3,4]=240.0
